
! RKS B97-3c opt freq
! PrintBasis
! LARGEPRINT

* xyz 0 1
C      3.7561212364   -0.2874338718    0.2825003534
C     -2.0884615886   -1.4086855767    0.0539693994
C     -2.7279022807   -0.2722441704    0.3226026892
C     -2.0641686996    0.8827513786    0.2970929970
C     -0.7602761089    0.9104944225    0.0056797676
C     -0.7877867133   -1.3864547684   -0.2373477109
C     -0.1065027341   -0.2339217226   -0.2593418358
C      1.3736715231   -0.2526974445   -0.6171516740
C      2.2601332255   -0.2647780525    0.6459800245
O     -0.1316350144    2.0900496506   -0.0090022731
H      4.3648587695   -0.2968482907    1.1894039800
H      3.9979968795   -1.1781558849   -0.3020565584
H      4.0248098197    0.5958949066   -0.3015740870
H     -2.6267024436   -2.3533344113    0.0708265876
H     -3.7888246179   -0.2861103618    0.5601394050
H     -2.5932164553    1.8080847876    0.5153337895
H     -0.2803126832   -2.3232717515   -0.4564674432
H      1.6000586271   -1.1357036383   -1.2205732781
H      1.6279475786    0.6105219683   -1.2373402604
H      2.0227328651   -1.1428437188    1.2517355467
H      2.0511253973    0.6190724621    1.2536204320
H      0.8083334176    1.9446140879   -0.2190298513
*
