! RKS B97-3c opt freq
! PrintBasis
! LARGEPRINT
# Pürin halkasının aromatik yapısını ve pi bulutlarını görmek için

* xyz 0 1
C         -0.10173      1.22272      0.00000
C          1.28291      1.14441      0.00000
N          1.89679     -0.08053      0.00000
C          1.03666     -1.11189      0.00000
C         -0.34293     -1.07720      0.00000
N         -0.96316      0.13459      0.00000
N         -0.81747      2.42777      0.00000
N          1.44229     -2.39247      0.00000
C          0.33446     -3.08447      0.00000
N         -0.78310     -2.33647      0.00000
H          2.41724     -2.73351      0.00000
H          0.33742     -4.16747      0.00000
H         -1.80247      2.39377      0.00000
H         -0.31747      3.29777      0.00000
H          1.91291      2.02441      0.00000
*
