 $CONTRL COORD=CART UNITS=ANGS $END

 $DATA

C1
O      8.0     -1.2017600000    0.1613920000    0.0106027000 
H      1.0      0.1770810000   -1.5205000000   -0.1937340000 
H      1.0     -2.4720400000    1.5150600000    0.5003150000 
 $END


